Cu
 1.0000000000000000
     2.5561910139893693    0.0000000000000000    0.0000000000000000
     0.0000000000000000    4.4274527100805949    0.0000000000000000
     0.0000000000000000    0.0000000000000000    6.2613636693614918
 Cu 
   6
Cartesian
  0.0000000000000000  0.0000000000000000  0.0000000000000000
  0.0000000000000000  1.4758160942092948  2.0871191359992740
  0.0000000000000000  2.9516366158712999  4.1742445333622173
  1.2780955069946847  0.7379102608310025  4.1742445333622173
  1.2780955069946847  2.2137263550402975  0.0000000000000000
  1.2780955069946847  3.6895424492495925  2.0871191359992740
